# LAMMPS input file to test MTP on 2-atom BCC lithium at 100 K with dump for OVITO

units           metal
atom_style      atomic
boundary        p p p

# Create lattice and simulation box
lattice         bcc 3.49  # lattice constant in Angstroms (≈ 6.63 Bohr)
region          box block 0 1 0 1 0 1
create_box      1 box
create_atoms    1 box

# Atom masses
mass            1 6.94  # Lithium

# Moment Tensor Potential
pair_style      mlip load_from=pot_V0.almtp
pair_coeff      * *

# Neighbor settings
neighbor        2.0 bin
neigh_modify    delay 0 every 1 check yes

# Velocity initialization at 100 K
velocity        all create 300.0 12345 mom yes rot no dist gaussian

# Thermo output
thermo          100
thermo_style    custom step temp pe etotal press

# Dump for OVITO (XYZ format)
dump            1 all xyz 10 dump.mtp_test_100K.xyz
dump_modify     1 sort id

# Fix for NVT at 100 K
fix             1 all nvt temp 300.0 300.0 0.1

# Run
timestep        0.001
run             1000
