
&CONTROL
    calculation = 'scf',
    prefix = 'Li_config_2',
    outdir = './tmp/',
    pseudo_dir = '../pseudopotentials/',
    tprnfor = .true.,
    tstress = .true.,
/
&SYSTEM
    ibrav = 3,
    celldm(1) = 6.589697, 
    nat = 1,
    ntyp = 1,
    ecutwfc = 60.0,
    ecutrho = 300.0, 
    occupations = 'smearing',
    smearing = 'gaussian',
    degauss = 0.01,
/
&ELECTRONS
    conv_thr = 1.0d-8,
    mixing_beta = 0.7,
/
ATOMIC_SPECIES
 Li  6.94  Li.pbe-s-kjpaw_psl.1.0.0.UPF
ATOMIC_POSITIONS (crystal)
 Li  0.000745  0.000842  -0.000135

K_POINTS automatic
8 8 8 0 0 0 
