# Stage 2 - Active Learning: 4-atom BCC Lithium (1x1x2 supercell)

units           metal
atom_style      atomic
boundary        p p p

# Create 1x1x2 BCC supercell
lattice         bcc 3.49
region          box block 0 1 0 1 0 2
create_box      1 box
create_atoms    1 box

mass            1 6.94  # Lithium

pair_style      mlip load_from=pot_V0.almtp extrapolation_control=true extrapolation_control:threshold_break=2000000 extrapolation_control:threshold_save=50000 extrapolation_control:save_extrapolative_to=out/preselected_stage2_4atom.cfg
pair_coeff      * *

neighbor        2.0 bin
neigh_modify    delay 0 every 1 check yes

velocity        all create 100.0 12345 mom yes rot no dist gaussian

thermo          50
thermo_style    custom step temp pe etotal press

dump            1 all xyz 10 dump.stage2_4atom.xyz
dump_modify     1 sort id

fix             1 all nvt temp 100.0 100.0 0.1

timestep        0.001
run             10000
