&CONTROL
    calculation = 'vc-relax',    ! Perform variable-cell relaxation
    prefix = 'Li_BCC',
    outdir = './tmp/',
    pseudo_dir = '../pseudopotentials/',
    tprnfor = .true.,            ! Print forces
    tstress = .true.,            ! Compute stress tensor
/
&SYSTEM
    ibrav = 3,                   ! BCC structure
    celldm(1) = 6.6,            ! Initial lattice parameter in Bohr
    nat = 2,                     ! Number of atoms in the unit cell
    ntyp = 1,                    ! Number of types of atoms
    ecutwfc = 65.0,              ! Plane-wave cutoff for wavefunctions (Ry)
    ecutrho = 300.0,             ! Plane-wave cutoff for charge density (Ry)
    occupations = 'smearing',
    smearing = 'gaussian',
    degauss = 0.01,
/
&ELECTRONS
    conv_thr = 1.0d-8,           ! Convergence threshold for SCF
    mixing_beta = 0.7,           ! Mixing factor for charge density
/
&IONS
    ion_dynamics = 'bfgs',       ! Use BFGS algorithm for ion relaxation
/
&CELL
    cell_dynamics = 'bfgs',      ! Use BFGS for cell relaxation
    press_conv_thr = 0.5,        ! Pressure convergence threshold (kbar)
/
ATOMIC_SPECIES
 Li  6.94  Li.pbe-s-kjpaw_psl.1.0.0.UPF
ATOMIC_POSITIONS (crystal)
 Li 0.0 0.0 0.0
 Li 0.5 0.5 0.5                  ! Second atom in BCC structure
K_POINTS automatic
 6 6 6 0 0 0                     ! Finer k-point grid for better accuracy
